sat

(objectives
 ((bvadd PriceProv11 (bvadd PriceProv10 (bvadd PriceProv9 (bvadd PriceProv8 (bvadd PriceProv7 (bvadd PriceProv6 (bvadd PriceProv5 (bvadd PriceProv4 (bvadd PriceProv3 (bvadd PriceProv1 PriceProv2)))))))))) (_ bv26400 32))
)
;; statistics
(
 :cnf-variables 5901
 :cnf-literals 27415
 :cnf-clauses 11598
 :sat-checks 10
 :sat-restarts 90
 :sat-decisions 701455
 :sat-random-decisions 459
 :sat-propagations 5980643267
 :sat-theory-propagations 0
 :sat-watched-clauses-visited 7490783813
 :sat-binary-watched-clauses-visited 4086442454
 :sat-conflicts 413767
 :sat-theory-conflicts 0
 :theory-necessary-interface-equalities 0
 :theory-extra-interface-equalities 0
 :euf-total-calls 723535
 :euf-complete-calls 8
 :euf-conflicts 0
 :euf-implications 0
 :euf-explanations 0
 :euf-egraph-nodes-created 180151
 :euf-egraph-nodes-deleted 170344
 :euf-num-asserted-equalities 66902324
 :euf-num-asserted-inequalities 44375250
 :euf-num-merges 123164500
 :euf-num-merges-undone 123164500
 :euf-num-atoms-retold 41120
 :la-total-calls 723535
 :la-complete-calls 8
 :la-conflicts 0
 :la-implications 0
 :la-explanations 0
 :la-num-equalities-split 0
 :la-num-tableau-rows 0
 :la-num-tableau-variables 0
 :bv-total-calls 723535
 :bv-complete-calls 8
 :bv-conflicts 0
 :bv-implications 0
 :bv-explanations 0
 :fp-total-calls 723535
 :fp-complete-calls 8
 :fp-conflicts 0
 :fp-implications 0
 :fp-explanations 0
 :arr-total-calls 723535
 :arr-complete-calls 8
 :arr-conflicts 0
 :arr-implications 0
 :arr-explanations 0
 :arr-write-lemmas-added 0
 :arr-row-lemmas-added 0
 :arr-ext-lemmas-added 0
 :arr-const-lemmas-added 0
 :na-total-calls 723535
 :na-complete-calls 8
 :na-conflicts 0
 :na-implications 0
 :na-explanations 0
 :na-num_nonlinear_multiplications 0
 :na-num_axiom_checks 0
 :na-num_zero_lemmas 0
 :na-num_sign_lemmas 0
 :na-num_neutral_lemmas 0
 :na-num_proportionality_lemmas 0
 :na-num_bound_lemmas 0
 :na-num_tangent_lemmas 0
 :na-num_monotonicity_lemmas 0
 :na-num_sat_checks 0
 :na-axiom_check_time 0.000
 :na-sat_check_time 0.000
 :time-seconds 957.978
 :memory-mb 272.533
)
